/* Problème */

/* Objective function */
min: +x1 +x2;

/* Constraints */
-0.93584545476 x1 +0.783362700811 x2 <= 0.632202377859;
+0.538944738087 x1 +0.103361407644 x2 <= 0.787874932288;
-0.870279595713 x1 +0.514055253096 x2 <= 0.378548607763;
+0.355081456059 x1 +0.623213766611 x2 <= 0.504064773748;
+0.293085230013 x1 +0.825401266876 x2 <= 0.437626727249;
-0.986611277425 x1 +0.768534565189 x2 <= 0.162170866859;
+0.182827898648 x1 +0.107979996353 x2 <= 0.0821429399993;

/* Variable bounds */
x1 = 0.184657422521;
x2 = 0.448068282126;
